160 angstroemd0                         
   1.00000000000000     
     8.3440088779951811    0.0141467319051522   -0.0030994031990332
     0.0141306078588377    8.3651080108233575   -0.0111574877843287
    -0.0093084627824663   -0.0334400272000692   25.1898445690588524
   Ga   O 
    64    96
Direct
  0.8779931091316457  0.3642827729184742  0.1210602470042356
  0.1366785965189025  0.1159417321273096  0.7064118966481373
  0.1057918877195912  0.6137225067007996  0.8715838326530202
  0.8836955913814691  0.3932102043331482  0.4629823637194443
  0.5932713441835447  0.1160937603808415  0.8785077914901508
  0.6155959298988933  0.6205212127456684  0.0426622091001462
  0.6299587122375852  0.6446613994042036  0.3772229298921224
  0.6255769180511503  0.1321773374708672  0.5420741955818903
  0.6293218959797643  0.6159338367517797  0.7132622721035446
  0.1385492998309549  0.1474970558201429  0.3725175702030514
  0.6340539240265460  0.1127289376801672  0.2064221449593245
  0.8870263309505270  0.8731219389554555  0.6207785236482402
  0.3861038781482665  0.8614615507002085  0.1279622432344051
  0.3847542934177632  0.9019844743856260  0.4561588393036759
  0.1341556501891196  0.6181118003965772  0.2131221893515310
  0.3864865728425203  0.3660819001792697  0.6270329009429081
  0.3744073100609259  0.8761014584921050  0.7891823712933804
  0.8570571639789839  0.8690584016750840  0.9561106462012252
  0.8737542980509164  0.8779759483251530  0.2908771381618795
  0.9955927529274275  0.5050670555635766  0.0008284915560603
  0.4715132657774157  0.7308905056476626  0.9206975915880498
  0.2697031545610869  0.9925915579407648  0.5813503720582498
  0.7589365528106290  0.2374264396875143  0.6704551625647543
  0.0052062295334370  0.0088662957339804  0.4993357080379448
  0.2434845408430664  0.4981897772260534  0.7494910650648225
  0.9961691848613955  0.2567207734380807  0.2513635757883338
  0.5166270302723200  0.0235256852302529  0.3313072358626312
  0.2401147009218582  0.5046745795261710  0.0825290252120638
  0.7423693163540589  0.2456532057308199  0.9994409914804161
  0.5127598148077713  0.4889374646817121  0.1711303291172018
  0.7560749032753953  0.9768837289728534  0.0819636301286140
  0.0047084639668633  0.2588651560714312  0.5844220919503564
  0.0019281712655643  0.7601334530065922  0.4182495256110882
  0.2521793480142609  0.0063393252222759  0.2495424401333571
  0.7729837150870511  0.7218867690359790  0.1668159293001928
  0.5257804188995822  0.9770858507738612  0.6663169184435264
  0.4966035913371196  0.4987583186591389  0.8355228851030507
  0.7454454301803521  0.7519013972112303  0.8308507875243630
  0.9939060477171772  0.7558063315173531  0.7514358365331777
  0.5260790223510539  0.2799465695616143  0.4171152167185217
  0.2428464939556873  0.2493741688378510  0.1657425807448597
  0.9769290236175491  0.2325759894625284  0.9128312152831517
  0.2690117599073131  0.2715564976540664  0.5013744671032425
  0.7465588251550059  0.5092414447426140  0.5824389869252734
  0.5083180779742054  0.2342639785732122  0.7520706515453475
  0.0057049251339937  0.9823472002488084  0.1642331717134369
  0.4833879324934616  0.9808491803377769  0.0026923817609369
  0.2657096040709603  0.7424380159580778  0.6626781190396844
  0.2168162459414825  0.9736541975808385  0.9095360943205417
  0.2649951099897088  0.5159545845147455  0.4180273553620424
 -0.0000349976591570  0.4996317142962540  0.3330851150209043
  0.7337158133185884  0.5010170057433116  0.9136105625436711
  0.4961184622862803  0.2440940476132279  0.0847829153638231
  0.5178710865862806  0.7389716342202235  0.2528018327846222
  0.2530727741412593  0.7564474483910739  0.3344956995654468
  0.7642051403110877  0.0261967653650930  0.4132717703779881
  0.7504391744747002  0.7568087565596190  0.5026808960989957
  0.9966851022879318  0.5063854270499145  0.6667006269497561
  0.2308018902265511  0.2364262143097735  0.8323066916070240
  0.3834647259503925  0.6313031832328870  0.5402080378605060
  0.1174809288913630  0.8695773661795243  0.0425367299883406
  0.8670972107963629  0.1173990301643326  0.7923528648742504
  0.6341126804262405  0.3795003808855224  0.2930654145756356
  0.2479392969760301  0.2499608334935912  0.9921740448725814
  0.2670944756229940  0.2634674544407769  0.0903996569391912
  0.7434439951464806  0.7660347148547881  0.2442990966840899
  0.4943254411793921  0.9946418915112196  0.2517290163234934
  0.5075243355009874  0.9991544503265353  0.0840350626918401
  0.0003272678063014  0.7512281425745475  0.1726877920465553
  0.0005490976360501  0.2322665276901341  0.1672999787512444
  0.7606382318495443  0.5184740831205347  0.3338875046139446
  0.2268195066270827  0.4692137567473922  0.0058862297523101
  0.0053104221217985  0.4918382723280687  0.0797692728740229
  0.0081758469089557  0.4901340806928264  0.2549264433774378
  0.4908086933891712  0.2192770068621850  0.0068799988189374
  0.4949904615348986  0.7704770592098856  0.3309333772049869
  0.2464522871500585  0.9956393564097229  0.1679057121656872
  0.7615252393156645  0.9845323454484777  0.1619633649963144
  0.2664840629401116  0.7638311352737824  0.2542539663202796
  0.7365612356019199  0.2314042329403072  0.0791429990563675
  0.4894248287565394  0.4879855383348354  0.0873952565869374
  0.5120225567911394  0.5090571755079634  0.2476370601214255
  0.0086999941192150  0.2667411446218625  0.3292332853664605
  0.9874133977026723  0.7422191705818288  0.9996957568437964
  0.0081818004806595  0.0058664338878553  0.2469492611487741
  0.9860137531540949  0.9864216984960233  0.0875684846518652
  0.5110252971409883  0.7331315475555249  0.1726982134125566
  0.4989383686374136  0.2494953465274504  0.1651800513800345
  0.7571672792153381  0.2434733827113622  0.2492799953003650
  0.2561718204421457  0.7422863557285602  0.0830143508774448
  0.2632396692347671  0.4940289430140147  0.1654000891807306
  0.7437063430540569  0.4957741083123713  0.1617148336526291
  0.7327119767825990  0.0032879640533273  0.0032165350337194
  0.2662584435780701  0.0009204132219432  0.3300882117668287
  0.7314579075589888  0.7506650377334716  0.0891360792321778
  0.2295400181188032  0.2291466783480804  0.2401875275479992
  0.2665198476573753  0.2699517588063508  0.4196400928959467
  0.7579847306388826  0.7437976732571241  0.5797207127488248
  0.4955190490856084  0.0192106238422921  0.5885452474108982
  0.5167644863244762  0.0231291665905352  0.4112291259574015
  0.9850498527129621  0.7853457753179994  0.4922117978014622
  0.0199610129461578  0.2506036954866454  0.5036603260453757
  0.7515449054651442  0.4854677406810136  0.6660382817341729
  0.2297878124426012  0.5339231494545801  0.3430698932992079
  0.0070880295696280  0.5207264280930011  0.4158439628059948
  0.9810471379994909  0.4823239135006788  0.5926985780728050
  0.5165062724935179  0.2500032892789057  0.3384596061728019
  0.4966105476005834  0.7502126959509733  0.6725999305698612
  0.2470613671988494  0.0207917230853280  0.5019029476579795
  0.7611918406187330  0.0054693532603075  0.4974305698955468
  0.2651412588499534  0.7625893671590761  0.5858380944678977
  0.7553907557099635  0.2549003767669639  0.4226736005184130
  0.4976720271411365  0.5073744470687578  0.4133308631017981
  0.5074690949753816  0.4949407735490606  0.5829226040033699
  0.9991276013325948  0.2494267237731441  0.6653597824849813
  0.0082932492459140  0.7578396798855145  0.3372790130388636
  0.0200236949853445  0.0166940256428418  0.5792136304610236
  0.0031452551688184  0.0140436679073149  0.4165692205593339
  0.5080992143278258  0.7685191683818335  0.4981804849037401
  0.4949890955525150  0.2418162847116657  0.4943823665147477
  0.7601403932776282  0.2599990404324855  0.5858473135757637
  0.2472939449556803  0.7675395682630466  0.4152192355803047
  0.2619988319879705  0.5007740640526852  0.4948910827630211
  0.7579194140428388  0.5226996797023794  0.5047461558351645
  0.7457425833545213  0.9951445105838684  0.3368959272889607
  0.2636993373770862  0.9884203136889108  0.6611951565827272
  0.7580466133696420  0.7766111196495987  0.4197873724620984
  0.2471885371750875  0.2470183640597030  0.5811906562598883
  0.2552521015858796  0.2561605146376326  0.7517652273129997
  0.7265526999840960  0.7455865987137088  0.9137272744080134
  0.4713375039568513  0.9802068894218491  0.9227550971068454
  0.4841528122508232  0.0090703315448536  0.7432382618060550
  0.9820219293996134  0.7451149691181392  0.8290968789005950
  0.9995921934844116  0.2390527075459540  0.8370633279494982
  0.7450376192262779  0.4875257931605971  0.9976451127207085
  0.2529793434950261  0.5033003943072677  0.6677636062788472
  0.0197852192154658  0.5219410324125782  0.7405779762889957
  0.9754414758236311  0.4913763812100215  0.9185137970222412
  0.5138976741221204  0.2393495403004545  0.6715557426979771
  0.4991951598842750  0.7542468241174968  0.9976684100786227
  0.2599478431946708  0.0084668292402797  0.8352899467456286
  0.7302037154292950  0.9962271104463553  0.8355351170999389
  0.2416468813265285  0.7483251465301466  0.9118555754945217
  0.7385199796105071  0.2381449261766480  0.7469716411708192
  0.4848742408014597  0.4824228196314472  0.7543954820587184
  0.5001088987597049  0.5095159285675364  0.9128002267629599
  0.9765472389544053  0.2649195507863488  0.9907327075525487
  0.0175640075364283  0.7502909318311488  0.6670043388314962
  0.9905812741732991  0.0000654677471502  0.9193548904825787
  0.0054715879253380  0.9946052458874638  0.7496023172157553
  0.4972578672007459  0.7438777901222352  0.8338546610449885
  0.4794950328164810  0.2547124040288765  0.8319011073399798
  0.7333222841543470  0.2505302626809461  0.9198430074520293
  0.2427385846640601  0.7421091326992140  0.7464581969454105
  0.2487810443349273  0.4804707024887185  0.8302642578731874
  0.7249791909663841  0.5175999404663679  0.8382036299210271
  0.7523543719877626  0.0072255088990935  0.6602638205807994
  0.2456079685903956  0.0100967372891367  0.0005287589465058
  0.7594203315866076  0.7473287293997524  0.7531919793941895
  0.2191954603582908  0.2165505697630702  0.9158765039001987
