160 angstroemd0                         
   1.00000000000000     
     8.3861896086387731   -0.0003491006731247   -0.0320100310272165
    -0.0003424091582330    8.3318321233614547    0.0369684546262137
    -0.0960383459310738    0.1106195656069532   25.1391026329378136
   Ga   O 
    64    96
Direct
  0.1353832373916177  0.1161043760766184  0.7092442376646634
  0.6377029145282131  0.1141960461970048  0.8734143952034608
  0.1277982896743093  0.6154736200934807  0.8777190535625639
  0.1205603998813752  0.1377842611050110  0.3791913573473348
  0.6056050948229935  0.6074070000365320  0.0386789723984532
  0.3604752929250154  0.3907902782384409  0.2939657878516516
  0.8988692293945822  0.8749360041634328  0.6233650231198842
  0.3815243108261367  0.8750666603833129  0.4581681135050757
  0.1209056670524203  0.6245269180292441  0.2090010486604827
  0.3683052103874082  0.8795385177034691  0.7934158439466730
  0.3611325229437518  0.8653007321849974  0.1234580024868384
  0.8506997198635214  0.3618828270627803  0.1277679536356199
  0.1091688982801831  0.1182058486632784  0.0428798165828394
  0.8608179837116542  0.8829354644473650  0.2871866868018936
  0.6449485484059498  0.1310812957097534  0.5372352283533990
  0.6126253100695491  0.6381679311927948  0.3729041781786163
  0.8674397244254212  0.8785764397542856  0.9578184242067772
  0.8772275019363630  0.3770159329461616  0.7889487850957673
  0.4014937034910407  0.3845144096151208  0.6280131935937597
  0.1536553379818459  0.6319330993426315  0.5440473535248759
  0.0070769676856417  0.9984993044640086  0.4975054465602317
  0.7465694146172986  0.7588237571269666  0.8286851348402799
  0.2594052127473769  0.4926993849760210  0.7516307408992668
  0.2476873059503482  0.7484467146692412  0.9981734503248919
  0.7459487527066896  0.4996219671368984  0.9148572197014229
  0.7573104239053162  0.9972722292055876  0.4177574943410191
  0.7563964584880581  0.2442626796826895  0.6674452300157429
  0.0025711497135109  0.9965054894048884  0.8334880079757289
  0.9986045515037396  0.2493589463490925  0.2486774877209871
  0.4825172704076546  0.0117844170594338  0.3294894931009630
  0.7414540274238506  0.4977785698561183  0.2509567155024721
  0.2305601311705897  0.4838416078993822  0.0848433786093264
  0.5023982890403261  0.4967153617659472  0.8333422055810864
  0.0130203655709515  0.2478783157991729  0.5818663649558740
  0.5071269569382556  0.2553539352875756  0.4157877390092153
  0.9885007834945604  0.7455578790082372  0.0833981152586179
  0.7689674700682757  0.5111664982535776  0.5820728366346518
  0.7265352700752362  0.9878079344052098  0.0818616538876362
  0.2584312341102013  0.2345454721919785  0.8380043560160757
  0.9886619325036413  0.5181583058286607  0.3374178927265454
  0.9920450353633030  0.0056441319101585  0.1681258943039119
  0.5220868987079434  0.5179459332365121  0.4988988818380996
  0.4713814853003412  0.2284548990091528  0.0830291518335819
  0.0079967936974491  0.2347830244625419  0.9189162218469251
  0.0118865769717015  0.4970593329503439  0.6655707128687367
  0.4911027157125536  0.7509026803207096  0.9181681626812203
  0.4765421809333857  0.7635640490104945  0.2476083208081797
  0.2406501473646280  0.5201469587541463  0.4189543380063879
  0.2598314212559453  0.2532265323404210  0.5010008509017423
  0.5332108918592570  0.7723462305804517  0.5835489468979042
  0.9972125067479772  0.7584338225679225  0.7479527374817012
  0.4764650718108877  0.4838808475472278  0.1677539255693360
  0.2794498938887197  0.0098777201903577  0.5869776845081514
  0.7269162572455672  0.2345515837169792  0.9985938059996045
  0.2233119341971785  0.7773531019077038  0.3333617898643242
  0.2793473785232719  0.7599163047694484  0.6693225504866840
  0.7380254157359852  0.7482509251698902  0.1654805285167332
  0.9916093070330011  0.4953262040630232  0.0013662492780715
  0.7520629421385550  0.2486717951114098  0.3333501241471825
  0.5153704891276049  0.2422188041712181  0.7487398528559228
  0.8805369160045982  0.6325156081378289  0.4597700224523260
  0.3600532068539214  0.1271139969079998  0.2074230838269840
  0.3704890630313914  0.1171296996910644  0.9589415053117168
  0.6369578813443111  0.8783311269205111  0.7077528088576799
  0.2420637452425435  0.2533159828319598  0.0799947522377543
  0.7269509464235249  0.7397796089233337  0.2457543673838877
  0.4810577919509420  0.9941650387651675  0.2527144153820322
  0.4971278342095187  0.9978907245660954  0.0864356175445341
  0.9830832043802372  0.7474022440165397  0.1637610210196906
  0.9827046245860075  0.2402759694418462  0.1703031271080330
  0.7495574244614953  0.5059271299990278  0.3321331328612276
  0.2129072234993470  0.5185839534312231  0.0095251628418257
  0.9829344545174662  0.5005652413501553  0.0837023646838705
  0.9858813969240388  0.4973326740409149  0.2528922127181296
  0.5006772447361229  0.2369538203835405  0.0043650566250848
  0.4843023821664336  0.7660737385924312  0.3279671442408846
  0.2322579715634404  0.9896558270762922  0.1667408279308009
  0.7625838634638354  0.9707598478807349  0.1569918288347077
  0.2519011656836856  0.7355387279081310  0.2555762161243547
  0.7264708042091076  0.2371094889117205  0.0800487462049664
  0.4795767195595279  0.4836802308802181  0.0862607742659489
  0.4996854186877183  0.5092237842637887  0.2481030027649477
  0.9959164970043627  0.2696673909079632  0.3327456434989073
  0.9906315851800356  0.7404671782573710  0.0029071210201400
  0.9861556387078430  0.0145293949690951  0.2456310857917899
  0.9858243208029073  0.9845741364064100  0.0863601494822415
  0.4973650352184684  0.7354083010284095  0.1686837810285442
  0.4795458042135727  0.2567380310556720  0.1617893738426309
  0.7653185597660344  0.2737954258874412  0.2592964209173579
  0.2269124056498029  0.7427016291765729  0.0800539770800653
  0.2486932288839981  0.5144060131261231  0.1612158247951905
  0.7248440206288087  0.5058199799483409  0.1699880085709813
  0.7564268508032687  0.0053887360123954  0.0054085448374450
  0.2525541947130788  0.0045655459143461  0.3390249436169161
  0.7437064704518384  0.7393211443781804  0.0829055203165419
  0.2367862257485864  0.2630302395338679  0.2501546098896397
  0.2651076914083761  0.2702661072963766  0.4206051619830160
  0.7602472303188290  0.7440692155795602  0.5867529956852410
  0.5073074887740552  0.0018812306856597  0.5772830345455228
  0.5078197139738339  0.0104896161556880  0.4138116643560146
  0.0195225750024418  0.7561052398894398  0.5016709372656124
  0.0368401677936062  0.2328848653275804  0.5077184570486234
  0.7897679760386153  0.4741682900483133  0.6570419362568437
  0.2339669276860457  0.5167138623410902  0.3387935498297407
  0.0107831392950898  0.5154743834081061  0.4141483186909884
  0.0199833953027009  0.4932484482785856  0.5845287832713278
  0.4952823648752620  0.2519316514217782  0.3345544373310887
  0.5052773744190600  0.7613297175516025  0.6620814810496336
  0.2559831671596108  0.0093209969867163  0.5024923490741172
  0.7730283970779419  0.0065972915720578  0.4952540077837853
  0.2766778903087919  0.7625609769171527  0.5889103136534953
  0.7299420841344704  0.2322126558244408  0.4073427182500323
  0.4950551268902889  0.4977934012281763  0.4186305843674806
  0.5230553199650909  0.5130646049193789  0.5805144108389018
  0.0133214215326343  0.2521572975135687  0.6627011205434845
  0.9967668785556040  0.7494191364549432  0.3272227932349638
  0.0295353165471140  0.0037906084509945  0.5802863645227686
  0.9915222504387387  0.0083321085921260  0.4201333387400569
  0.4931898061022751  0.7437780083173544  0.5056354681997962
  0.5010185355813084  0.2683660289220332  0.4963035280346565
  0.7741679921233151  0.2536913208742199  0.5840350409272712
  0.2676824966993555  0.7462605546410562  0.4112712112103126
  0.2715496054530567  0.4956735505940022  0.4981294115996949
  0.7508896684280539  0.5102265690295318  0.5049446988100372
  0.7310781611368747  0.0038208207255764  0.3339238478070951
  0.2510561215565955  0.9897184151222335  0.6631917581135544
  0.7437594149565209  0.7578877375971088  0.4167517403743325
  0.2674244180527786  0.2494164736059556  0.5835514952553245
  0.2606662560462396  0.2512653973538531  0.7536933843169903
  0.7436578393377055  0.7423006234013909  0.9131484291063511
  0.5045395251294662  0.9912935312346943  0.9165216934269643
  0.5024338572829288  0.0023564138507175  0.7505934366841418
  0.9971177856415084  0.7487863283229350  0.8307780173384849
  0.0079933382372203  0.2441670754496419  0.8359514677869428
  0.7508868092090163  0.4828946096564228  0.9964105120784794
  0.2549924211997708  0.5098615032040473  0.6700046194971935
  0.0199374739502587  0.5068188873182258  0.7465610722127516
  0.9851294939906462  0.4858023043093665  0.9199660555857532
  0.5236843521648574  0.2546101171807710  0.6710861511805105
  0.4817815248199390  0.7371761946587901  0.9958435378657307
  0.2379080773743353  0.0052768914987269  0.8337653990953749
  0.7674181493941155  0.9879335771790378  0.8329688359554291
  0.2566656307608213  0.7388332965262213  0.9202376750830307
  0.7494818814516547  0.2541520173219182  0.7459921376927887
  0.4833251936199133  0.4750919466453551  0.7592415546495134
  0.5221042446433015  0.5178226706316329  0.9073833025772705
  0.9792947978719698  0.2546137766452490  0.9978291840743497
  0.0254856642825392  0.7381640535364760  0.6692224437146865
  0.9860069818914342  0.0072197121010751  0.9126154015463910
  0.0182775086183558  0.9860629626377286  0.7543434351918569
  0.5074444440248488  0.7473044255404497  0.8344444516174379
  0.4980118000970324  0.2459041211689557  0.8322616800687073
  0.7562867595165398  0.2565534559518390  0.9187593764206839
  0.2492750065045886  0.7363298687286497  0.7482601230101148
  0.2527709774160388  0.4829435015547603  0.8327607271832407
  0.7525017413297059  0.5103116649732419  0.8337905751601908
  0.7728423591377808  0.0056558307165167  0.6658911265952911
  0.2343673089252040  0.9886824162181689  0.9999508937781149
  0.7681610366651846  0.7519343276848077  0.7522439249576410
  0.2371729040342928  0.2416463372769199  0.9143776472424786
